(set-info :status unknown)
(declare-const symbol_32 (_ BitVec 32))
(declare-const symbol_35 (_ BitVec 32))
(declare-const symbol_25 (_ BitVec 32))
(declare-const symbol_27 (_ BitVec 32))
(declare-const symbol_42 (_ BitVec 32))
(declare-const symbol_17 (_ BitVec 32))
(declare-const symbol_33 (_ BitVec 32))
(declare-const symbol_4 (_ BitVec 32))
(declare-const symbol_10 (_ BitVec 32))
(declare-const symbol_26 (_ BitVec 32))
(declare-const symbol_28 (_ BitVec 32))
(declare-const symbol_29 (_ BitVec 32))
(declare-const symbol_0 (_ BitVec 32))
(declare-const symbol_15 (_ BitVec 32))
(declare-const symbol_23 (_ BitVec 32))
(declare-const symbol_9 (_ BitVec 32))
(declare-const symbol_36 (_ BitVec 32))
(declare-const symbol_16 (_ BitVec 32))
(declare-const symbol_34 (_ BitVec 32))
(declare-const symbol_3 (_ BitVec 32))
(declare-const symbol_11 (_ BitVec 32))
(declare-const symbol_14 (_ BitVec 32))
(declare-const symbol_38 (_ BitVec 32))
(declare-const symbol_24 (_ BitVec 32))
(declare-const symbol_1 (_ BitVec 32))
(declare-const symbol_6 (_ BitVec 32))
(declare-const symbol_22 (_ BitVec 32))
(declare-const symbol_41 (_ BitVec 32))
(declare-const symbol_18 (_ BitVec 32))
(declare-const symbol_30 (_ BitVec 32))
(declare-const symbol_40 (_ BitVec 32))
(declare-const symbol_37 (_ BitVec 32))
(declare-const symbol_19 (_ BitVec 32))
(declare-const symbol_21 (_ BitVec 32))
(declare-const symbol_43 (_ BitVec 32))
(declare-const symbol_2 (_ BitVec 32))
(declare-const symbol_31 (_ BitVec 32))
(declare-const symbol_20 (_ BitVec 32))
(declare-const symbol_7 (_ BitVec 32))
(declare-const symbol_13 (_ BitVec 32))
(declare-const symbol_39 (_ BitVec 32))
(declare-const symbol_8 (_ BitVec 32))
(declare-const symbol_12 (_ BitVec 32))
(declare-const symbol_5 (_ BitVec 32))
(assert (= symbol_43 symbol_28))
(assert (not (= symbol_43 symbol_29)))
(assert (not (= symbol_43 symbol_30)))
(assert (not (= symbol_43 symbol_31)))
(assert (not (= symbol_43 symbol_32)))
(assert (not (= symbol_43 symbol_33)))
(assert (not (= symbol_43 symbol_34)))
(assert (not (= symbol_43 symbol_35)))
(assert (not (= symbol_43 symbol_36)))
(assert (not (= symbol_43 symbol_37)))
(assert (not (= symbol_43 symbol_38)))
(assert (not (= symbol_43 symbol_39)))
(assert (not (= symbol_43 symbol_40)))
(assert (not (= symbol_43 symbol_41)))
(assert (not (= symbol_43 symbol_42)))
(assert (not (= symbol_42 symbol_0)))
(assert (not (= symbol_42 symbol_1)))
(assert (not (= symbol_42 symbol_2)))
(assert (not (= symbol_42 symbol_3)))
(assert (not (= symbol_42 symbol_4)))
(assert (not (= symbol_42 symbol_5)))
(assert (not (= symbol_42 symbol_6)))
(assert (not (= symbol_42 symbol_7)))
(assert (not (= symbol_42 symbol_8)))
(assert (not (= symbol_42 symbol_9)))
(assert (not (= symbol_42 symbol_10)))
(assert (not (= symbol_42 symbol_11)))
(assert (not (= symbol_42 symbol_12)))
(assert (not (= symbol_42 symbol_13)))
(assert (not (= symbol_42 symbol_14)))
(assert (not (= symbol_42 symbol_15)))
(assert (not (= symbol_42 symbol_16)))
(assert (not (= symbol_42 symbol_17)))
(assert (not (= symbol_42 symbol_18)))
(assert (not (= symbol_42 symbol_19)))
(assert (not (= symbol_42 symbol_20)))
(assert (not (= symbol_42 symbol_21)))
(assert (not (= symbol_42 symbol_22)))
(assert (not (= symbol_42 symbol_23)))
(assert (not (= symbol_42 symbol_24)))
(assert (not (= symbol_42 symbol_25)))
(assert (not (= symbol_42 symbol_26)))
(assert (not (= symbol_42 symbol_27)))
(assert (not (= symbol_42 symbol_28)))
(assert (not (= symbol_42 symbol_29)))
(assert (not (= symbol_42 symbol_30)))
(assert (not (= symbol_42 symbol_31)))
(assert (not (= symbol_42 symbol_32)))
(assert (not (= symbol_42 symbol_33)))
(assert (not (= symbol_42 symbol_34)))
(assert (not (= symbol_42 symbol_35)))
(assert (not (= symbol_42 symbol_36)))
(assert (not (= symbol_42 symbol_37)))
(assert (not (= symbol_42 symbol_38)))
(assert (not (= symbol_42 symbol_39)))
(assert (not (= symbol_42 symbol_40)))
(assert (not (= symbol_42 symbol_41)))
(assert (not (= symbol_41 symbol_0)))
(assert (not (= symbol_41 symbol_1)))
(assert (not (= symbol_41 symbol_2)))
(assert (not (= symbol_41 symbol_3)))
(assert (not (= symbol_41 symbol_4)))
(assert (not (= symbol_41 symbol_5)))
(assert (not (= symbol_41 symbol_6)))
(assert (not (= symbol_41 symbol_7)))
(assert (not (= symbol_41 symbol_8)))
(assert (not (= symbol_41 symbol_9)))
(assert (not (= symbol_41 symbol_10)))
(assert (not (= symbol_41 symbol_11)))
(assert (not (= symbol_41 symbol_12)))
(assert (not (= symbol_41 symbol_13)))
(assert (not (= symbol_41 symbol_14)))
(assert (not (= symbol_41 symbol_15)))
(assert (not (= symbol_41 symbol_16)))
(assert (not (= symbol_41 symbol_17)))
(assert (not (= symbol_41 symbol_18)))
(assert (not (= symbol_41 symbol_19)))
(assert (not (= symbol_41 symbol_20)))
(assert (not (= symbol_41 symbol_21)))
(assert (not (= symbol_41 symbol_22)))
(assert (not (= symbol_41 symbol_23)))
(assert (not (= symbol_41 symbol_24)))
(assert (not (= symbol_41 symbol_25)))
(assert (not (= symbol_41 symbol_26)))
(assert (not (= symbol_41 symbol_27)))
(assert (not (= symbol_41 symbol_28)))
(assert (not (= symbol_41 symbol_29)))
(assert (not (= symbol_41 symbol_30)))
(assert (not (= symbol_41 symbol_31)))
(assert (not (= symbol_41 symbol_32)))
(assert (not (= symbol_41 symbol_33)))
(assert (not (= symbol_41 symbol_34)))
(assert (not (= symbol_41 symbol_35)))
(assert (not (= symbol_41 symbol_36)))
(assert (not (= symbol_41 symbol_37)))
(assert (not (= symbol_41 symbol_38)))
(assert (not (= symbol_41 symbol_39)))
(assert (not (= symbol_41 symbol_40)))
(assert (not (= symbol_40 symbol_0)))
(assert (not (= symbol_40 symbol_1)))
(assert (not (= symbol_40 symbol_2)))
(assert (not (= symbol_40 symbol_3)))
(assert (not (= symbol_40 symbol_4)))
(assert (not (= symbol_40 symbol_5)))
(assert (not (= symbol_40 symbol_6)))
(assert (not (= symbol_40 symbol_7)))
(assert (not (= symbol_40 symbol_8)))
(assert (not (= symbol_40 symbol_9)))
(assert (not (= symbol_40 symbol_10)))
(assert (not (= symbol_40 symbol_11)))
(assert (not (= symbol_40 symbol_12)))
(assert (not (= symbol_40 symbol_13)))
(assert (not (= symbol_40 symbol_14)))
(assert (not (= symbol_40 symbol_15)))
(assert (not (= symbol_40 symbol_16)))
(assert (not (= symbol_40 symbol_17)))
(assert (not (= symbol_40 symbol_18)))
(assert (not (= symbol_40 symbol_19)))
(assert (not (= symbol_40 symbol_20)))
(assert (not (= symbol_40 symbol_21)))
(assert (not (= symbol_40 symbol_22)))
(assert (not (= symbol_40 symbol_23)))
(assert (not (= symbol_40 symbol_24)))
(assert (not (= symbol_40 symbol_25)))
(assert (not (= symbol_40 symbol_26)))
(assert (not (= symbol_40 symbol_27)))
(assert (not (= symbol_40 symbol_28)))
(assert (not (= symbol_40 symbol_29)))
(assert (not (= symbol_40 symbol_30)))
(assert (not (= symbol_40 symbol_31)))
(assert (not (= symbol_40 symbol_32)))
(assert (not (= symbol_40 symbol_33)))
(assert (not (= symbol_40 symbol_34)))
(assert (not (= symbol_40 symbol_35)))
(assert (not (= symbol_40 symbol_36)))
(assert (not (= symbol_40 symbol_37)))
(assert (not (= symbol_40 symbol_38)))
(assert (not (= symbol_40 symbol_39)))
(assert (not (= symbol_39 symbol_0)))
(assert (not (= symbol_39 symbol_1)))
(assert (not (= symbol_39 symbol_2)))
(assert (not (= symbol_39 symbol_3)))
(assert (not (= symbol_39 symbol_4)))
(assert (not (= symbol_39 symbol_5)))
(assert (not (= symbol_39 symbol_6)))
(assert (not (= symbol_39 symbol_7)))
(assert (not (= symbol_39 symbol_8)))
(assert (not (= symbol_39 symbol_9)))
(assert (not (= symbol_39 symbol_10)))
(assert (not (= symbol_39 symbol_11)))
(assert (not (= symbol_39 symbol_12)))
(assert (not (= symbol_39 symbol_13)))
(assert (not (= symbol_39 symbol_14)))
(assert (not (= symbol_39 symbol_15)))
(assert (not (= symbol_39 symbol_16)))
(assert (not (= symbol_39 symbol_17)))
(assert (not (= symbol_39 symbol_18)))
(assert (not (= symbol_39 symbol_19)))
(assert (not (= symbol_39 symbol_20)))
(assert (not (= symbol_39 symbol_21)))
(assert (not (= symbol_39 symbol_22)))
(assert (not (= symbol_39 symbol_23)))
(assert (not (= symbol_39 symbol_24)))
(assert (not (= symbol_39 symbol_25)))
(assert (not (= symbol_39 symbol_26)))
(assert (not (= symbol_39 symbol_27)))
(assert (not (= symbol_39 symbol_28)))
(assert (not (= symbol_39 symbol_29)))
(assert (not (= symbol_39 symbol_30)))
(assert (not (= symbol_39 symbol_31)))
(assert (not (= symbol_39 symbol_32)))
(assert (not (= symbol_39 symbol_33)))
(assert (not (= symbol_39 symbol_34)))
(assert (not (= symbol_39 symbol_35)))
(assert (not (= symbol_39 symbol_36)))
(assert (not (= symbol_39 symbol_37)))
(assert (not (= symbol_39 symbol_38)))
(assert (not (= symbol_38 symbol_0)))
(assert (not (= symbol_38 symbol_1)))
(assert (not (= symbol_38 symbol_2)))
(assert (not (= symbol_38 symbol_3)))
(assert (not (= symbol_38 symbol_4)))
(assert (not (= symbol_38 symbol_5)))
(assert (not (= symbol_38 symbol_6)))
(assert (not (= symbol_38 symbol_7)))
(assert (not (= symbol_38 symbol_8)))
(assert (not (= symbol_38 symbol_9)))
(assert (not (= symbol_38 symbol_10)))
(assert (not (= symbol_38 symbol_11)))
(assert (not (= symbol_38 symbol_12)))
(assert (not (= symbol_38 symbol_13)))
(assert (not (= symbol_38 symbol_14)))
(assert (not (= symbol_38 symbol_15)))
(assert (not (= symbol_38 symbol_16)))
(assert (not (= symbol_38 symbol_17)))
(assert (not (= symbol_38 symbol_18)))
(assert (not (= symbol_38 symbol_19)))
(assert (not (= symbol_38 symbol_20)))
(assert (not (= symbol_38 symbol_21)))
(assert (not (= symbol_38 symbol_22)))
(assert (not (= symbol_38 symbol_23)))
(assert (not (= symbol_38 symbol_24)))
(assert (not (= symbol_38 symbol_25)))
(assert (not (= symbol_38 symbol_26)))
(assert (not (= symbol_38 symbol_27)))
(assert (not (= symbol_38 symbol_28)))
(assert (not (= symbol_38 symbol_29)))
(assert (not (= symbol_38 symbol_30)))
(assert (not (= symbol_38 symbol_31)))
(assert (not (= symbol_38 symbol_32)))
(assert (not (= symbol_38 symbol_33)))
(assert (not (= symbol_38 symbol_34)))
(assert (not (= symbol_38 symbol_35)))
(assert (not (= symbol_38 symbol_36)))
(assert (not (= symbol_38 symbol_37)))
(assert (not (= symbol_37 symbol_0)))
(assert (not (= symbol_37 symbol_1)))
(assert (not (= symbol_37 symbol_2)))
(assert (not (= symbol_37 symbol_3)))
(assert (not (= symbol_37 symbol_4)))
(assert (not (= symbol_37 symbol_5)))
(assert (not (= symbol_37 symbol_6)))
(assert (not (= symbol_37 symbol_7)))
(assert (not (= symbol_37 symbol_8)))
(assert (not (= symbol_37 symbol_9)))
(assert (not (= symbol_37 symbol_10)))
(assert (not (= symbol_37 symbol_11)))
(assert (not (= symbol_37 symbol_12)))
(assert (not (= symbol_37 symbol_13)))
(assert (not (= symbol_37 symbol_14)))
(assert (not (= symbol_37 symbol_15)))
(assert (not (= symbol_37 symbol_16)))
(assert (not (= symbol_37 symbol_17)))
(assert (not (= symbol_37 symbol_18)))
(assert (not (= symbol_37 symbol_19)))
(assert (not (= symbol_37 symbol_20)))
(assert (not (= symbol_37 symbol_21)))
(assert (not (= symbol_37 symbol_22)))
(assert (not (= symbol_37 symbol_23)))
(assert (not (= symbol_37 symbol_24)))
(assert (not (= symbol_37 symbol_25)))
(assert (not (= symbol_37 symbol_26)))
(assert (not (= symbol_37 symbol_27)))
(assert (not (= symbol_37 symbol_28)))
(assert (not (= symbol_37 symbol_29)))
(assert (not (= symbol_37 symbol_30)))
(assert (not (= symbol_37 symbol_31)))
(assert (not (= symbol_37 symbol_32)))
(assert (not (= symbol_37 symbol_33)))
(assert (not (= symbol_37 symbol_34)))
(assert (not (= symbol_37 symbol_35)))
(assert (not (= symbol_37 symbol_36)))
(assert (not (= symbol_36 symbol_0)))
(assert (not (= symbol_36 symbol_1)))
(assert (not (= symbol_36 symbol_2)))
(assert (not (= symbol_36 symbol_3)))
(assert (not (= symbol_36 symbol_4)))
(assert (not (= symbol_36 symbol_5)))
(assert (not (= symbol_36 symbol_6)))
(assert (not (= symbol_36 symbol_7)))
(assert (not (= symbol_36 symbol_8)))
(assert (not (= symbol_36 symbol_9)))
(assert (not (= symbol_36 symbol_10)))
(assert (not (= symbol_36 symbol_11)))
(assert (not (= symbol_36 symbol_12)))
(assert (not (= symbol_36 symbol_13)))
(assert (not (= symbol_36 symbol_14)))
(assert (not (= symbol_36 symbol_15)))
(assert (not (= symbol_36 symbol_16)))
(assert (not (= symbol_36 symbol_17)))
(assert (not (= symbol_36 symbol_18)))
(assert (not (= symbol_36 symbol_19)))
(assert (not (= symbol_36 symbol_20)))
(assert (not (= symbol_36 symbol_21)))
(assert (not (= symbol_36 symbol_22)))
(assert (not (= symbol_36 symbol_23)))
(assert (not (= symbol_36 symbol_24)))
(assert (not (= symbol_36 symbol_25)))
(assert (not (= symbol_36 symbol_26)))
(assert (not (= symbol_36 symbol_27)))
(assert (not (= symbol_36 symbol_28)))
(assert (not (= symbol_36 symbol_29)))
(assert (not (= symbol_36 symbol_30)))
(assert (not (= symbol_36 symbol_31)))
(assert (not (= symbol_36 symbol_32)))
(assert (not (= symbol_36 symbol_33)))
(assert (not (= symbol_36 symbol_34)))
(assert (not (= symbol_36 symbol_35)))
(assert (not (= symbol_35 symbol_0)))
(assert (not (= symbol_35 symbol_1)))
(assert (not (= symbol_35 symbol_2)))
(assert (not (= symbol_35 symbol_3)))
(assert (not (= symbol_35 symbol_4)))
(assert (not (= symbol_35 symbol_5)))
(assert (not (= symbol_35 symbol_6)))
(assert (not (= symbol_35 symbol_7)))
(assert (not (= symbol_35 symbol_8)))
(assert (not (= symbol_35 symbol_9)))
(assert (not (= symbol_35 symbol_10)))
(assert (not (= symbol_35 symbol_11)))
(assert (not (= symbol_35 symbol_12)))
(assert (not (= symbol_35 symbol_13)))
(assert (not (= symbol_35 symbol_14)))
(assert (not (= symbol_35 symbol_15)))
(assert (not (= symbol_35 symbol_16)))
(assert (not (= symbol_35 symbol_17)))
(assert (not (= symbol_35 symbol_18)))
(assert (not (= symbol_35 symbol_19)))
(assert (not (= symbol_35 symbol_20)))
(assert (not (= symbol_35 symbol_21)))
(assert (not (= symbol_35 symbol_22)))
(assert (not (= symbol_35 symbol_23)))
(assert (not (= symbol_35 symbol_24)))
(assert (not (= symbol_35 symbol_25)))
(assert (not (= symbol_35 symbol_26)))
(assert (not (= symbol_35 symbol_27)))
(assert (not (= symbol_35 symbol_28)))
(assert (not (= symbol_35 symbol_29)))
(assert (not (= symbol_35 symbol_30)))
(assert (not (= symbol_35 symbol_31)))
(assert (not (= symbol_35 symbol_32)))
(assert (not (= symbol_35 symbol_33)))
(assert (not (= symbol_35 symbol_34)))
(assert (not (= symbol_34 symbol_0)))
(assert (not (= symbol_34 symbol_1)))
(assert (not (= symbol_34 symbol_2)))
(assert (not (= symbol_34 symbol_3)))
(assert (not (= symbol_34 symbol_4)))
(assert (not (= symbol_34 symbol_5)))
(assert (not (= symbol_34 symbol_6)))
(assert (not (= symbol_34 symbol_7)))
(assert (not (= symbol_34 symbol_8)))
(assert (not (= symbol_34 symbol_9)))
(assert (not (= symbol_34 symbol_10)))
(assert (not (= symbol_34 symbol_11)))
(assert (not (= symbol_34 symbol_12)))
(assert (not (= symbol_34 symbol_13)))
(assert (not (= symbol_34 symbol_14)))
(assert (not (= symbol_34 symbol_15)))
(assert (not (= symbol_34 symbol_16)))
(assert (not (= symbol_34 symbol_17)))
(assert (not (= symbol_34 symbol_18)))
(assert (not (= symbol_34 symbol_19)))
(assert (not (= symbol_34 symbol_20)))
(assert (not (= symbol_34 symbol_21)))
(assert (not (= symbol_34 symbol_22)))
(assert (not (= symbol_34 symbol_23)))
(assert (not (= symbol_34 symbol_24)))
(assert (not (= symbol_34 symbol_25)))
(assert (not (= symbol_34 symbol_26)))
(assert (not (= symbol_34 symbol_27)))
(assert (not (= symbol_34 symbol_28)))
(assert (not (= symbol_34 symbol_29)))
(assert (not (= symbol_34 symbol_30)))
(assert (not (= symbol_34 symbol_31)))
(assert (not (= symbol_34 symbol_32)))
(assert (not (= symbol_34 symbol_33)))
(assert (not (= symbol_33 symbol_0)))
(assert (not (= symbol_33 symbol_1)))
(assert (not (= symbol_33 symbol_2)))
(assert (not (= symbol_33 symbol_3)))
(assert (not (= symbol_33 symbol_4)))
(assert (not (= symbol_33 symbol_5)))
(assert (not (= symbol_33 symbol_6)))
(assert (not (= symbol_33 symbol_7)))
(assert (not (= symbol_33 symbol_8)))
(assert (not (= symbol_33 symbol_9)))
(assert (not (= symbol_33 symbol_10)))
(assert (not (= symbol_33 symbol_11)))
(assert (not (= symbol_33 symbol_12)))
(assert (not (= symbol_33 symbol_13)))
(assert (not (= symbol_33 symbol_14)))
(assert (not (= symbol_33 symbol_15)))
(assert (not (= symbol_33 symbol_16)))
(assert (not (= symbol_33 symbol_17)))
(assert (not (= symbol_33 symbol_18)))
(assert (not (= symbol_33 symbol_19)))
(assert (not (= symbol_33 symbol_20)))
(assert (not (= symbol_33 symbol_21)))
(assert (not (= symbol_33 symbol_22)))
(assert (not (= symbol_33 symbol_23)))
(assert (not (= symbol_33 symbol_24)))
(assert (not (= symbol_33 symbol_25)))
(assert (not (= symbol_33 symbol_26)))
(assert (not (= symbol_33 symbol_27)))
(assert (not (= symbol_33 symbol_28)))
(assert (not (= symbol_33 symbol_29)))
(assert (not (= symbol_33 symbol_30)))
(assert (not (= symbol_33 symbol_31)))
(assert (not (= symbol_33 symbol_32)))
(assert (not (= symbol_32 symbol_0)))
(assert (not (= symbol_32 symbol_1)))
(assert (not (= symbol_32 symbol_2)))
(assert (not (= symbol_32 symbol_3)))
(assert (not (= symbol_32 symbol_4)))
(assert (not (= symbol_32 symbol_5)))
(assert (not (= symbol_32 symbol_6)))
(assert (not (= symbol_32 symbol_7)))
(assert (not (= symbol_32 symbol_8)))
(assert (not (= symbol_32 symbol_9)))
(assert (not (= symbol_32 symbol_10)))
(assert (not (= symbol_32 symbol_11)))
(assert (not (= symbol_32 symbol_12)))
(assert (not (= symbol_32 symbol_13)))
(assert (not (= symbol_32 symbol_14)))
(assert (not (= symbol_32 symbol_15)))
(assert (not (= symbol_32 symbol_16)))
(assert (not (= symbol_32 symbol_17)))
(assert (not (= symbol_32 symbol_18)))
(assert (not (= symbol_32 symbol_19)))
(assert (not (= symbol_32 symbol_20)))
(assert (not (= symbol_32 symbol_21)))
(assert (not (= symbol_32 symbol_22)))
(assert (not (= symbol_32 symbol_23)))
(assert (not (= symbol_32 symbol_24)))
(assert (not (= symbol_32 symbol_25)))
(assert (not (= symbol_32 symbol_26)))
(assert (not (= symbol_32 symbol_27)))
(assert (not (= symbol_32 symbol_28)))
(assert (not (= symbol_32 symbol_29)))
(assert (not (= symbol_32 symbol_30)))
(assert (not (= symbol_32 symbol_31)))
(assert (not (= symbol_31 symbol_0)))
(assert (not (= symbol_31 symbol_1)))
(assert (not (= symbol_31 symbol_2)))
(assert (not (= symbol_31 symbol_3)))
(assert (not (= symbol_31 symbol_4)))
(assert (not (= symbol_31 symbol_5)))
(assert (not (= symbol_31 symbol_6)))
(assert (not (= symbol_31 symbol_7)))
(assert (not (= symbol_31 symbol_8)))
(assert (not (= symbol_31 symbol_9)))
(assert (not (= symbol_31 symbol_10)))
(assert (not (= symbol_31 symbol_11)))
(assert (not (= symbol_31 symbol_12)))
(assert (not (= symbol_31 symbol_13)))
(assert (not (= symbol_31 symbol_14)))
(assert (not (= symbol_31 symbol_15)))
(assert (not (= symbol_31 symbol_16)))
(assert (not (= symbol_31 symbol_17)))
(assert (not (= symbol_31 symbol_18)))
(assert (not (= symbol_31 symbol_19)))
(assert (not (= symbol_31 symbol_20)))
(assert (not (= symbol_31 symbol_21)))
(assert (not (= symbol_31 symbol_22)))
(assert (not (= symbol_31 symbol_23)))
(assert (not (= symbol_31 symbol_24)))
(assert (not (= symbol_31 symbol_25)))
(assert (not (= symbol_31 symbol_26)))
(assert (not (= symbol_31 symbol_27)))
(assert (not (= symbol_31 symbol_28)))
(assert (not (= symbol_31 symbol_29)))
(assert (not (= symbol_31 symbol_30)))
(assert (not (= symbol_30 symbol_0)))
(assert (not (= symbol_30 symbol_1)))
(assert (not (= symbol_30 symbol_2)))
(assert (not (= symbol_30 symbol_3)))
(assert (not (= symbol_30 symbol_4)))
(assert (not (= symbol_30 symbol_5)))
(assert (not (= symbol_30 symbol_6)))
(assert (not (= symbol_30 symbol_7)))
(assert (not (= symbol_30 symbol_8)))
(assert (not (= symbol_30 symbol_9)))
(assert (not (= symbol_30 symbol_10)))
(assert (not (= symbol_30 symbol_11)))
(assert (not (= symbol_30 symbol_12)))
(assert (not (= symbol_30 symbol_13)))
(assert (not (= symbol_30 symbol_14)))
(assert (not (= symbol_30 symbol_15)))
(assert (not (= symbol_30 symbol_16)))
(assert (not (= symbol_30 symbol_17)))
(assert (not (= symbol_30 symbol_18)))
(assert (not (= symbol_30 symbol_19)))
(assert (not (= symbol_30 symbol_20)))
(assert (not (= symbol_30 symbol_21)))
(assert (not (= symbol_30 symbol_22)))
(assert (not (= symbol_30 symbol_23)))
(assert (not (= symbol_30 symbol_24)))
(assert (not (= symbol_30 symbol_25)))
(assert (not (= symbol_30 symbol_26)))
(assert (not (= symbol_30 symbol_27)))
(assert (not (= symbol_30 symbol_28)))
(assert (not (= symbol_30 symbol_29)))
(assert (not (= symbol_29 symbol_0)))
(assert (not (= symbol_29 symbol_1)))
(assert (not (= symbol_29 symbol_2)))
(assert (not (= symbol_29 symbol_3)))
(assert (not (= symbol_29 symbol_4)))
(assert (not (= symbol_29 symbol_5)))
(assert (not (= symbol_29 symbol_6)))
(assert (not (= symbol_29 symbol_7)))
(assert (not (= symbol_29 symbol_8)))
(assert (not (= symbol_29 symbol_9)))
(assert (not (= symbol_29 symbol_10)))
(assert (not (= symbol_29 symbol_11)))
(assert (not (= symbol_29 symbol_12)))
(assert (not (= symbol_29 symbol_13)))
(assert (not (= symbol_29 symbol_14)))
(assert (not (= symbol_29 symbol_15)))
(assert (not (= symbol_29 symbol_16)))
(assert (not (= symbol_29 symbol_17)))
(assert (not (= symbol_29 symbol_18)))
(assert (not (= symbol_29 symbol_19)))
(assert (not (= symbol_29 symbol_20)))
(assert (not (= symbol_29 symbol_21)))
(assert (not (= symbol_29 symbol_22)))
(assert (not (= symbol_29 symbol_23)))
(assert (not (= symbol_29 symbol_24)))
(assert (not (= symbol_29 symbol_25)))
(assert (not (= symbol_29 symbol_26)))
(assert (not (= symbol_29 symbol_27)))
(assert (not (= symbol_29 symbol_28)))
(assert (not (= symbol_28 symbol_0)))
(assert (not (= symbol_28 symbol_1)))
(assert (not (= symbol_28 symbol_2)))
(assert (not (= symbol_28 symbol_3)))
(assert (not (= symbol_28 symbol_4)))
(assert (not (= symbol_28 symbol_5)))
(assert (not (= symbol_28 symbol_6)))
(assert (not (= symbol_28 symbol_7)))
(assert (not (= symbol_28 symbol_8)))
(assert (not (= symbol_28 symbol_9)))
(assert (not (= symbol_28 symbol_10)))
(assert (not (= symbol_28 symbol_11)))
(assert (not (= symbol_28 symbol_12)))
(assert (not (= symbol_28 symbol_13)))
(assert (not (= symbol_28 symbol_14)))
(assert (not (= symbol_28 symbol_15)))
(assert (not (= symbol_28 symbol_16)))
(assert (not (= symbol_28 symbol_17)))
(assert (not (= symbol_28 symbol_18)))
(assert (not (= symbol_28 symbol_19)))
(assert (not (= symbol_28 symbol_20)))
(assert (not (= symbol_28 symbol_21)))
(assert (not (= symbol_28 symbol_22)))
(assert (not (= symbol_28 symbol_23)))
(assert (not (= symbol_28 symbol_24)))
(assert (not (= symbol_28 symbol_25)))
(assert (not (= symbol_28 symbol_26)))
(assert (not (= symbol_28 symbol_27)))
(assert (not (= symbol_27 symbol_0)))
(assert (not (= symbol_27 symbol_1)))
(assert (not (= symbol_27 symbol_2)))
(assert (not (= symbol_27 symbol_3)))
(assert (not (= symbol_27 symbol_4)))
(assert (not (= symbol_27 symbol_5)))
(assert (not (= symbol_27 symbol_6)))
(assert (not (= symbol_27 symbol_7)))
(assert (not (= symbol_27 symbol_8)))
(assert (not (= symbol_27 symbol_9)))
(assert (not (= symbol_27 symbol_10)))
(assert (not (= symbol_27 symbol_11)))
(assert (not (= symbol_27 symbol_12)))
(assert (not (= symbol_27 symbol_13)))
(assert (not (= symbol_27 symbol_14)))
(assert (not (= symbol_27 symbol_15)))
(assert (not (= symbol_27 symbol_16)))
(assert (not (= symbol_27 symbol_17)))
(assert (not (= symbol_27 symbol_18)))
(assert (not (= symbol_27 symbol_19)))
(assert (not (= symbol_27 symbol_20)))
(assert (not (= symbol_27 symbol_21)))
(assert (not (= symbol_27 symbol_22)))
(assert (not (= symbol_27 symbol_23)))
(assert (not (= symbol_27 symbol_24)))
(assert (not (= symbol_27 symbol_25)))
(assert (not (= symbol_27 symbol_26)))
(assert (not (= symbol_26 symbol_0)))
(assert (not (= symbol_26 symbol_1)))
(assert (not (= symbol_26 symbol_2)))
(assert (not (= symbol_26 symbol_3)))
(assert (not (= symbol_26 symbol_4)))
(assert (not (= symbol_26 symbol_5)))
(assert (not (= symbol_26 symbol_6)))
(assert (not (= symbol_26 symbol_7)))
(assert (not (= symbol_26 symbol_8)))
(assert (not (= symbol_26 symbol_9)))
(assert (not (= symbol_26 symbol_10)))
(assert (not (= symbol_26 symbol_11)))
(assert (not (= symbol_26 symbol_12)))
(assert (not (= symbol_26 symbol_13)))
(assert (not (= symbol_26 symbol_14)))
(assert (not (= symbol_26 symbol_15)))
(assert (not (= symbol_26 symbol_16)))
(assert (not (= symbol_26 symbol_17)))
(assert (not (= symbol_26 symbol_18)))
(assert (not (= symbol_26 symbol_19)))
(assert (not (= symbol_26 symbol_20)))
(assert (not (= symbol_26 symbol_21)))
(assert (not (= symbol_26 symbol_22)))
(assert (not (= symbol_26 symbol_23)))
(assert (not (= symbol_26 symbol_24)))
(assert (not (= symbol_26 symbol_25)))
(assert (not (= symbol_25 symbol_0)))
(assert (not (= symbol_25 symbol_1)))
(assert (not (= symbol_25 symbol_2)))
(assert (not (= symbol_25 symbol_3)))
(assert (not (= symbol_25 symbol_4)))
(assert (not (= symbol_25 symbol_5)))
(assert (not (= symbol_25 symbol_6)))
(assert (not (= symbol_25 symbol_7)))
(assert (not (= symbol_25 symbol_8)))
(assert (not (= symbol_25 symbol_9)))
(assert (not (= symbol_25 symbol_10)))
(assert (not (= symbol_25 symbol_11)))
(assert (not (= symbol_25 symbol_12)))
(assert (not (= symbol_25 symbol_13)))
(assert (not (= symbol_25 symbol_14)))
(assert (not (= symbol_25 symbol_15)))
(assert (not (= symbol_25 symbol_16)))
(assert (not (= symbol_25 symbol_17)))
(assert (not (= symbol_25 symbol_18)))
(assert (not (= symbol_25 symbol_19)))
(assert (not (= symbol_25 symbol_20)))
(assert (not (= symbol_25 symbol_21)))
(assert (not (= symbol_25 symbol_22)))
(assert (not (= symbol_25 symbol_23)))
(assert (not (= symbol_25 symbol_24)))
(assert (not (= symbol_24 symbol_0)))
(assert (not (= symbol_24 symbol_1)))
(assert (not (= symbol_24 symbol_2)))
(assert (not (= symbol_24 symbol_3)))
(assert (not (= symbol_24 symbol_4)))
(assert (not (= symbol_24 symbol_5)))
(assert (not (= symbol_24 symbol_6)))
(assert (not (= symbol_24 symbol_7)))
(assert (not (= symbol_24 symbol_8)))
(assert (not (= symbol_24 symbol_9)))
(assert (not (= symbol_24 symbol_10)))
(assert (not (= symbol_24 symbol_11)))
(assert (not (= symbol_24 symbol_12)))
(assert (not (= symbol_24 symbol_13)))
(assert (not (= symbol_24 symbol_14)))
(assert (not (= symbol_24 symbol_15)))
(assert (not (= symbol_24 symbol_16)))
(assert (not (= symbol_24 symbol_17)))
(assert (not (= symbol_24 symbol_18)))
(assert (not (= symbol_24 symbol_19)))
(assert (not (= symbol_24 symbol_20)))
(assert (not (= symbol_24 symbol_21)))
(assert (not (= symbol_24 symbol_22)))
(assert (not (= symbol_24 symbol_23)))
(assert (not (= symbol_23 symbol_0)))
(assert (not (= symbol_23 symbol_1)))
(assert (not (= symbol_23 symbol_2)))
(assert (not (= symbol_23 symbol_3)))
(assert (not (= symbol_23 symbol_4)))
(assert (not (= symbol_23 symbol_5)))
(assert (not (= symbol_23 symbol_6)))
(assert (not (= symbol_23 symbol_7)))
(assert (not (= symbol_23 symbol_8)))
(assert (not (= symbol_23 symbol_9)))
(assert (not (= symbol_23 symbol_10)))
(assert (not (= symbol_23 symbol_11)))
(assert (not (= symbol_23 symbol_12)))
(assert (not (= symbol_23 symbol_13)))
(assert (not (= symbol_23 symbol_14)))
(assert (not (= symbol_23 symbol_15)))
(assert (not (= symbol_23 symbol_16)))
(assert (not (= symbol_23 symbol_17)))
(assert (not (= symbol_23 symbol_18)))
(assert (not (= symbol_23 symbol_19)))
(assert (not (= symbol_23 symbol_20)))
(assert (not (= symbol_23 symbol_21)))
(assert (not (= symbol_23 symbol_22)))
(assert (not (= symbol_22 symbol_0)))
(assert (not (= symbol_22 symbol_1)))
(assert (not (= symbol_22 symbol_2)))
(assert (not (= symbol_22 symbol_3)))
(assert (not (= symbol_22 symbol_4)))
(assert (not (= symbol_22 symbol_5)))
(assert (not (= symbol_22 symbol_6)))
(assert (not (= symbol_22 symbol_7)))
(assert (not (= symbol_22 symbol_8)))
(assert (not (= symbol_22 symbol_9)))
(assert (not (= symbol_22 symbol_10)))
(assert (not (= symbol_22 symbol_11)))
(assert (not (= symbol_22 symbol_12)))
(assert (not (= symbol_22 symbol_13)))
(assert (not (= symbol_22 symbol_14)))
(assert (not (= symbol_22 symbol_15)))
(assert (not (= symbol_22 symbol_16)))
(assert (not (= symbol_22 symbol_17)))
(assert (not (= symbol_22 symbol_18)))
(assert (not (= symbol_22 symbol_19)))
(assert (not (= symbol_22 symbol_20)))
(assert (not (= symbol_22 symbol_21)))
(assert (not (= symbol_21 symbol_0)))
(assert (not (= symbol_21 symbol_1)))
(assert (not (= symbol_21 symbol_2)))
(assert (not (= symbol_21 symbol_3)))
(assert (not (= symbol_21 symbol_4)))
(assert (not (= symbol_21 symbol_5)))
(assert (not (= symbol_21 symbol_6)))
(assert (not (= symbol_21 symbol_7)))
(assert (not (= symbol_21 symbol_8)))
(assert (not (= symbol_21 symbol_9)))
(assert (not (= symbol_21 symbol_10)))
(assert (not (= symbol_21 symbol_11)))
(assert (not (= symbol_21 symbol_12)))
(assert (not (= symbol_21 symbol_13)))
(assert (not (= symbol_21 symbol_14)))
(assert (not (= symbol_21 symbol_15)))
(assert (not (= symbol_21 symbol_16)))
(assert (not (= symbol_21 symbol_17)))
(assert (not (= symbol_21 symbol_18)))
(assert (not (= symbol_21 symbol_19)))
(assert (not (= symbol_21 symbol_20)))
(assert (not (= symbol_20 symbol_0)))
(assert (not (= symbol_20 symbol_1)))
(assert (not (= symbol_20 symbol_2)))
(assert (not (= symbol_20 symbol_3)))
(assert (not (= symbol_20 symbol_4)))
(assert (not (= symbol_20 symbol_5)))
(assert (not (= symbol_20 symbol_6)))
(assert (not (= symbol_20 symbol_7)))
(assert (not (= symbol_20 symbol_8)))
(assert (not (= symbol_20 symbol_9)))
(assert (not (= symbol_20 symbol_10)))
(assert (not (= symbol_20 symbol_11)))
(assert (not (= symbol_20 symbol_12)))
(assert (not (= symbol_20 symbol_13)))
(assert (not (= symbol_20 symbol_14)))
(assert (not (= symbol_20 symbol_15)))
(assert (not (= symbol_20 symbol_16)))
(assert (not (= symbol_20 symbol_17)))
(assert (not (= symbol_20 symbol_18)))
(assert (not (= symbol_20 symbol_19)))
(assert (not (= symbol_19 symbol_0)))
(assert (not (= symbol_19 symbol_1)))
(assert (not (= symbol_19 symbol_2)))
(assert (not (= symbol_19 symbol_3)))
(assert (not (= symbol_19 symbol_4)))
(assert (not (= symbol_19 symbol_5)))
(assert (not (= symbol_19 symbol_6)))
(assert (not (= symbol_19 symbol_7)))
(assert (not (= symbol_19 symbol_8)))
(assert (not (= symbol_19 symbol_9)))
(assert (not (= symbol_19 symbol_10)))
(assert (not (= symbol_19 symbol_11)))
(assert (not (= symbol_19 symbol_12)))
(assert (not (= symbol_19 symbol_13)))
(assert (not (= symbol_19 symbol_14)))
(assert (not (= symbol_19 symbol_15)))
(assert (not (= symbol_19 symbol_16)))
(assert (not (= symbol_19 symbol_17)))
(assert (not (= symbol_19 symbol_18)))
(assert (not (= symbol_18 symbol_0)))
(assert (not (= symbol_18 symbol_1)))
(assert (not (= symbol_18 symbol_2)))
(assert (not (= symbol_18 symbol_3)))
(assert (not (= symbol_18 symbol_4)))
(assert (not (= symbol_18 symbol_5)))
(assert (not (= symbol_18 symbol_6)))
(assert (not (= symbol_18 symbol_7)))
(assert (not (= symbol_18 symbol_8)))
(assert (not (= symbol_18 symbol_9)))
(assert (not (= symbol_18 symbol_10)))
(assert (not (= symbol_18 symbol_11)))
(assert (not (= symbol_18 symbol_12)))
(assert (not (= symbol_18 symbol_13)))
(assert (not (= symbol_18 symbol_14)))
(assert (not (= symbol_18 symbol_15)))
(assert (not (= symbol_18 symbol_16)))
(assert (not (= symbol_18 symbol_17)))
(assert (not (= symbol_17 symbol_0)))
(assert (not (= symbol_17 symbol_1)))
(assert (not (= symbol_17 symbol_2)))
(assert (not (= symbol_17 symbol_3)))
(assert (not (= symbol_17 symbol_4)))
(assert (not (= symbol_17 symbol_5)))
(assert (not (= symbol_17 symbol_6)))
(assert (not (= symbol_17 symbol_7)))
(assert (not (= symbol_17 symbol_8)))
(assert (not (= symbol_17 symbol_9)))
(assert (not (= symbol_17 symbol_10)))
(assert (not (= symbol_17 symbol_11)))
(assert (not (= symbol_17 symbol_12)))
(assert (not (= symbol_17 symbol_13)))
(assert (not (= symbol_17 symbol_14)))
(assert (not (= symbol_17 symbol_15)))
(assert (not (= symbol_17 symbol_16)))
(assert (not (= symbol_16 symbol_0)))
(assert (not (= symbol_16 symbol_1)))
(assert (not (= symbol_16 symbol_2)))
(assert (not (= symbol_16 symbol_3)))
(assert (not (= symbol_16 symbol_4)))
(assert (not (= symbol_16 symbol_5)))
(assert (not (= symbol_16 symbol_6)))
(assert (not (= symbol_16 symbol_7)))
(assert (not (= symbol_16 symbol_8)))
(assert (not (= symbol_16 symbol_9)))
(assert (not (= symbol_16 symbol_10)))
(assert (not (= symbol_16 symbol_11)))
(assert (not (= symbol_16 symbol_12)))
(assert (not (= symbol_16 symbol_13)))
(assert (not (= symbol_16 symbol_14)))
(assert (not (= symbol_16 symbol_15)))
(assert (not (= symbol_15 symbol_0)))
(assert (not (= symbol_15 symbol_1)))
(assert (not (= symbol_15 symbol_2)))
(assert (not (= symbol_15 symbol_3)))
(assert (not (= symbol_15 symbol_4)))
(assert (not (= symbol_15 symbol_5)))
(assert (not (= symbol_15 symbol_6)))
(assert (not (= symbol_15 symbol_7)))
(assert (not (= symbol_15 symbol_8)))
(assert (not (= symbol_15 symbol_9)))
(assert (not (= symbol_15 symbol_10)))
(assert (not (= symbol_15 symbol_11)))
(assert (not (= symbol_15 symbol_12)))
(assert (not (= symbol_15 symbol_13)))
(assert (not (= symbol_15 symbol_14)))
(assert (not (= symbol_14 symbol_0)))
(assert (not (= symbol_14 symbol_1)))
(assert (not (= symbol_14 symbol_2)))
(assert (not (= symbol_14 symbol_3)))
(assert (not (= symbol_14 symbol_4)))
(assert (not (= symbol_14 symbol_5)))
(assert (not (= symbol_14 symbol_6)))
(assert (not (= symbol_14 symbol_7)))
(assert (not (= symbol_14 symbol_8)))
(assert (not (= symbol_14 symbol_9)))
(assert (not (= symbol_14 symbol_10)))
(assert (not (= symbol_14 symbol_11)))
(assert (not (= symbol_14 symbol_12)))
(assert (not (= symbol_14 symbol_13)))
(assert (not (= symbol_13 symbol_0)))
(assert (not (= symbol_13 symbol_1)))
(assert (not (= symbol_13 symbol_2)))
(assert (not (= symbol_13 symbol_3)))
(assert (not (= symbol_13 symbol_4)))
(assert (not (= symbol_13 symbol_5)))
(assert (not (= symbol_13 symbol_6)))
(assert (not (= symbol_13 symbol_7)))
(assert (not (= symbol_13 symbol_8)))
(assert (not (= symbol_13 symbol_9)))
(assert (not (= symbol_13 symbol_10)))
(assert (not (= symbol_13 symbol_11)))
(assert (not (= symbol_13 symbol_12)))
(assert (not (= symbol_12 symbol_0)))
(assert (not (= symbol_12 symbol_1)))
(assert (not (= symbol_12 symbol_2)))
(assert (not (= symbol_12 symbol_3)))
(assert (not (= symbol_12 symbol_4)))
(assert (not (= symbol_12 symbol_5)))
(assert (not (= symbol_12 symbol_6)))
(assert (not (= symbol_12 symbol_7)))
(assert (not (= symbol_12 symbol_8)))
(assert (not (= symbol_12 symbol_9)))
(assert (not (= symbol_12 symbol_10)))
(assert (not (= symbol_12 symbol_11)))
(assert (not (= symbol_11 symbol_0)))
(assert (not (= symbol_11 symbol_1)))
(assert (not (= symbol_11 symbol_2)))
(assert (not (= symbol_11 symbol_3)))
(assert (not (= symbol_11 symbol_4)))
(assert (not (= symbol_11 symbol_5)))
(assert (not (= symbol_11 symbol_6)))
(assert (not (= symbol_11 symbol_7)))
(assert (not (= symbol_11 symbol_8)))
(assert (not (= symbol_11 symbol_9)))
(assert (not (= symbol_11 symbol_10)))
(assert (not (= symbol_10 symbol_0)))
(assert (not (= symbol_10 symbol_1)))
(assert (not (= symbol_10 symbol_2)))
(assert (not (= symbol_10 symbol_3)))
(assert (not (= symbol_10 symbol_4)))
(assert (not (= symbol_10 symbol_5)))
(assert (not (= symbol_10 symbol_6)))
(assert (not (= symbol_10 symbol_7)))
(assert (not (= symbol_10 symbol_8)))
(assert (not (= symbol_10 symbol_9)))
(assert (not (= symbol_9 symbol_0)))
(assert (not (= symbol_9 symbol_1)))
(assert (not (= symbol_9 symbol_2)))
(assert (not (= symbol_9 symbol_3)))
(assert (not (= symbol_9 symbol_4)))
(assert (not (= symbol_9 symbol_5)))
(assert (not (= symbol_9 symbol_6)))
(assert (not (= symbol_9 symbol_7)))
(assert (not (= symbol_9 symbol_8)))
(assert (not (= symbol_8 symbol_0)))
(assert (not (= symbol_8 symbol_1)))
(assert (not (= symbol_8 symbol_2)))
(assert (not (= symbol_8 symbol_3)))
(assert (not (= symbol_8 symbol_4)))
(assert (not (= symbol_8 symbol_5)))
(assert (not (= symbol_8 symbol_6)))
(assert (not (= symbol_8 symbol_7)))
(assert (not (= symbol_7 symbol_0)))
(assert (not (= symbol_7 symbol_1)))
(assert (not (= symbol_7 symbol_2)))
(assert (not (= symbol_7 symbol_3)))
(assert (not (= symbol_7 symbol_4)))
(assert (not (= symbol_7 symbol_5)))
(assert (not (= symbol_7 symbol_6)))
(assert (not (= symbol_6 symbol_0)))
(assert (not (= symbol_6 symbol_1)))
(assert (not (= symbol_6 symbol_2)))
(assert (not (= symbol_6 symbol_3)))
(assert (not (= symbol_6 symbol_4)))
(assert (not (= symbol_6 symbol_5)))
(assert (not (= symbol_5 symbol_0)))
(assert (not (= symbol_5 symbol_1)))
(assert (not (= symbol_5 symbol_2)))
(assert (not (= symbol_5 symbol_3)))
(assert (not (= symbol_5 symbol_4)))
(assert (not (= symbol_4 symbol_0)))
(assert (not (= symbol_4 symbol_1)))
(assert (not (= symbol_4 symbol_2)))
(assert (not (= symbol_4 symbol_3)))
(assert (not (= symbol_3 symbol_0)))
(assert (not (= symbol_3 symbol_1)))
(assert (not (= symbol_3 symbol_2)))
(assert (not (= symbol_2 symbol_0)))
(assert (not (= symbol_2 symbol_1)))
(assert (not (= symbol_1 symbol_0)))
(check-sat)